NAME : MM26_depots
COMMENT : Instance 26 in MD algorithm. Coordinates of depots and vhcl speeds given.
TYPE : TSP
DIMENSION : 4
EDGE_WEIGHT_TYPE : ATT
NODE_COORD_SECTION
301 87.5721 9.7281 1
302 87.5721 9.7281 1
303 63.5186 90.8439 1
304 63.5186 90.8439 1
EOF
